38
1 0 20
2 0 9
2 1 11
3 0 10
3 1 14
3 2 4
4 0 3
4 1 21
4 2 10
4 3 3
5 0 10
5 1 21
5 2 8
5 3 1
5 4 7
6 0 20
6 1 1
6 2 15
6 3 11
6 4 13
6 5 1
7 0 22
7 1 18
7 2 15
7 3 22
7 4 15
7 5 10
7 6 18
8 0 19
8 1 11
8 2 17
8 3 20
8 4 19
8 5 14
8 6 15
8 7 5
9 0 4
9 1 9
9 2 2
9 3 1
9 4 6
9 5 13
9 6 12
9 7 22
9 8 11
10 0 14
10 1 5
10 2 8
10 3 8
10 4 20
10 5 14
10 6 18
10 7 15
10 8 17
10 9 16
11 0 16
11 1 6
11 2 15
11 3 7
11 4 15
11 5 21
11 6 6
11 7 5
11 8 1
11 9 14
11 10 10
12 0 22
12 1 10
12 2 11
12 3 14
12 4 16
12 5 19
12 6 15
12 7 4
12 8 17
12 9 14
12 10 18
12 11 10
13 0 1
13 1 3
13 2 11
13 3 16
13 4 12
13 5 8
13 6 10
13 7 17
13 8 14
13 9 1
13 10 22
13 11 20
13 12 22
14 0 19
14 1 19
14 2 20
14 3 15
14 4 18
14 5 21
14 6 4
14 7 12
14 8 3
14 9 6
14 10 13
14 11 8
14 12 17
14 13 18
15 0 14
15 1 7
15 2 2
15 3 19
15 4 21
15 5 9
15 6 7
15 7 9
15 8 20
15 9 9
15 10 20
15 11 21
15 12 9
15 13 22
15 14 3
16 0 13
16 1 7
16 2 10
16 3 18
16 4 9
16 5 13
16 6 22
16 7 6
16 8 17
16 9 9
16 10 10
16 11 3
16 12 5
16 13 5
16 14 2
16 15 13
17 0 6
17 1 14
17 2 1
17 3 13
17 4 3
17 5 19
17 6 17
17 7 1
17 8 18
17 9 3
17 10 6
17 11 5
17 12 10
17 13 18
17 14 22
17 15 4
17 16 12
18 0 16
18 1 6
18 2 7
18 3 22
18 4 13
18 5 13
18 6 15
18 7 4
18 8 8
18 9 18
18 10 18
18 11 9
18 12 19
18 13 13
18 14 21
18 15 1
18 16 10
18 17 2
19 0 1
19 1 1
19 2 19
19 3 3
19 4 18
19 5 22
19 6 11
19 7 5
19 8 18
19 9 17
19 10 8
19 11 6
19 12 9
19 13 2
19 14 4
19 15 6
19 16 19
19 17 5
19 18 14
20 0 10
20 1 21
20 2 8
20 3 8
20 4 14
20 5 7
20 6 15
20 7 14
20 8 22
20 9 15
20 10 9
20 11 3
20 12 2
20 13 2
20 14 15
20 15 16
20 16 20
20 17 21
20 18 16
20 19 19
21 0 6
21 1 2
21 2 7
21 3 20
21 4 21
21 5 9
21 6 5
21 7 7
21 8 18
21 9 20
21 10 22
21 11 12
21 12 1
21 13 21
21 14 11
21 15 1
21 16 17
21 17 21
21 18 1
21 19 22
21 20 20
22 0 6
22 1 17
22 2 6
22 3 20
22 4 17
22 5 20
22 6 19
22 7 22
22 8 2
22 9 4
22 10 4
22 11 1
22 12 19
22 13 17
22 14 8
22 15 12
22 16 13
22 17 13
22 18 16
22 19 6
22 20 13
22 21 5
23 0 4
23 1 2
23 2 1
23 3 11
23 4 3
23 5 16
23 6 14
23 7 6
23 8 3
23 9 5
23 10 5
23 11 15
23 12 20
23 13 13
23 14 18
23 15 1
23 16 17
23 17 12
23 18 8
23 19 19
23 20 2
23 21 18
23 22 17
24 0 5
24 1 20
24 2 18
24 3 16
24 4 7
24 5 11
24 6 6
24 7 19
24 8 22
24 9 8
24 10 13
24 11 9
24 12 3
24 13 11
24 14 14
24 15 9
24 16 21
24 17 4
24 18 1
24 19 12
24 20 14
24 21 10
24 22 7
24 23 22
25 0 1
25 1 5
25 2 19
25 3 3
25 4 12
25 5 3
25 6 13
25 7 17
25 8 20
25 9 13
25 10 15
25 11 2
25 12 1
25 13 12
25 14 11
25 15 2
25 16 6
25 17 21
25 18 16
25 19 11
25 20 20
25 21 14
25 22 2
25 23 14
25 24 5
26 0 18
26 1 13
26 2 1
26 3 3
26 4 15
26 5 3
26 6 18
26 7 3
26 8 22
26 9 9
26 10 1
26 11 2
26 12 5
26 13 14
26 14 7
26 15 6
26 16 13
26 17 4
26 18 2
26 19 17
26 20 21
26 21 12
26 22 6
26 23 19
26 24 7
26 25 16
27 0 10
27 1 17
27 2 7
27 3 3
27 4 12
27 5 20
27 6 15
27 7 4
27 8 18
27 9 9
27 10 9
27 11 3
27 12 11
27 13 20
27 14 1
27 15 14
27 16 16
27 17 8
27 18 2
27 19 15
27 20 21
27 21 15
27 22 15
27 23 8
27 24 13
27 25 16
27 26 12
28 0 17
28 1 13
28 2 5
28 3 18
28 4 15
28 5 8
28 6 6
28 7 14
28 8 5
28 9 13
28 10 6
28 11 12
28 12 21
28 13 12
28 14 9
28 15 16
28 16 3
28 17 16
28 18 3
28 19 20
28 20 20
28 21 22
28 22 6
28 23 15
28 24 18
28 25 15
28 26 10
28 27 14
29 0 1
29 1 8
29 2 7
29 3 3
29 4 10
29 5 17
29 6 15
29 7 3
29 8 16
29 9 21
29 10 7
29 11 14
29 12 21
29 13 19
29 14 21
29 15 22
29 16 2
29 17 2
29 18 16
29 19 12
29 20 14
29 21 19
29 22 14
29 23 7
29 24 10
29 25 9
29 26 10
29 27 12
29 28 4
30 0 7
30 1 17
30 2 16
30 3 22
30 4 8
30 5 22
30 6 21
30 7 8
30 8 11
30 9 22
30 10 16
30 11 15
30 12 14
30 13 2
30 14 15
30 15 1
30 16 12
30 17 19
30 18 17
30 19 7
30 20 16
30 21 10
30 22 19
30 23 17
30 24 11
30 25 8
30 26 6
30 27 4
30 28 12
30 29 8
31 0 4
31 1 2
31 2 22
31 3 14
31 4 20
31 5 13
31 6 7
31 7 6
31 8 5
31 9 22
31 10 17
31 11 8
31 12 4
31 13 22
31 14 6
31 15 22
31 16 20
31 17 8
31 18 6
31 19 4
31 20 21
31 21 3
31 22 13
31 23 3
31 24 6
31 25 7
31 26 16
31 27 4
31 28 18
31 29 15
31 30 10
32 0 3
32 1 13
32 2 19
32 3 10
32 4 11
32 5 8
32 6 19
32 7 20
32 8 11
32 9 6
32 10 6
32 11 10
32 12 10
32 13 17
32 14 18
32 15 6
32 16 13
32 17 10
32 18 13
32 19 12
32 20 2
32 21 16
32 22 13
32 23 5
32 24 15
32 25 9
32 26 7
32 27 14
32 28 14
32 29 4
32 30 1
32 31 3
33 0 9
33 1 12
33 2 14
33 3 10
33 4 12
33 5 22
33 6 8
33 7 11
33 8 18
33 9 5
33 10 9
33 11 9
33 12 3
33 13 12
33 14 16
33 15 6
33 16 10
33 17 1
33 18 10
33 19 1
33 20 19
33 21 12
33 22 5
33 23 17
33 24 5
33 25 3
33 26 4
33 27 15
33 28 4
33 29 6
33 30 17
33 31 19
33 32 9
34 0 1
34 1 10
34 2 7
34 3 8
34 4 15
34 5 1
34 6 3
34 7 2
34 8 5
34 9 1
34 10 5
34 11 12
34 12 2
34 13 16
34 14 7
34 15 1
34 16 8
34 17 5
34 18 5
34 19 14
34 20 10
34 21 19
34 22 9
34 23 2
34 24 6
34 25 15
34 26 22
34 27 19
34 28 3
34 29 19
34 30 14
34 31 13
34 32 17
34 33 2
35 0 6
35 1 20
35 2 14
35 3 5
35 4 8
35 5 16
35 6 22
35 7 20
35 8 9
35 9 19
35 10 16
35 11 2
35 12 8
35 13 14
35 14 8
35 15 22
35 16 14
35 17 9
35 18 19
35 19 17
35 20 22
35 21 12
35 22 15
35 23 12
35 24 2
35 25 4
35 26 5
35 27 9
35 28 11
35 29 18
35 30 8
35 31 18
35 32 15
35 33 9
35 34 3
36 0 8
36 1 8
36 2 16
36 3 21
36 4 19
36 5 19
36 6 5
36 7 22
36 8 8
36 9 16
36 10 7
36 11 18
36 12 9
36 13 5
36 14 20
36 15 13
36 16 5
36 17 4
36 18 21
36 19 19
36 20 16
36 21 21
36 22 6
36 23 21
36 24 18
36 25 1
36 26 2
36 27 22
36 28 12
36 29 16
36 30 6
36 31 11
36 32 5
36 33 8
36 34 11
36 35 1
37 0 17
37 1 7
37 2 18
37 3 22
37 4 4
37 5 9
37 6 17
37 7 13
37 8 12
37 9 21
37 10 9
37 11 10
37 12 16
37 13 21
37 14 11
37 15 9
37 16 2
37 17 11
37 18 10
37 19 22
37 20 10
37 21 19
37 22 12
37 23 14
37 24 14
37 25 14
37 26 22
37 27 18
37 28 11
37 29 5
37 30 16
37 31 17
37 32 11
37 33 13
37 34 11
37 35 18
37 36 4
